4 8 1 1 111111
15 2 8 2 2 3 2 8 5 5 7 2 3 3 7 3 3 8 3 2 4 3 5 3 2 3 5 7 7 1 2 1 6 6 4 3 8 3 1 1 3 1 2 1 1 7 7 2 8 5 2 6 3 8 1 5 6 7 3 2 1 6 5 3 2 8 5 7 7 2 2 5 3 5 2 1 1 7 1 3 8 6 1 3 6 1 
15 2 1 6 4 1 3 8 5 5 2 6 3 2 1 2 6 6 2 8 3 7 6 2 2 1 5 3 2 3 4 7 3 3 8 6 1 7 6 4 2 4 5 5 1 2 1 1 5 1 2 2 1 3 5 2 8 7 2 7 3 1 3 4 1 6 2 2 8 2 7 7 2 2 4 5 6 3 8 6 1 2 7 3 
15 2 3 1 7 7 2 5 1 7 5 2 8 5 7 7 2 3 7 7 5 2 8 1 3 3 2 4 5 5 2 2 8 5 1 5 2 1 1 4 5 2 3 4 6 2 2 8 1 5 4 3 2 1 3 2 5 2 2 6 5 7 3 2 4 3 7 7 2 8 6 3 5 2 8 4 6 7 
15 2 8 6 4 4 2 1 5 2 2 2 2 4 7 4 2 8 4 7 4 3 3 4 4 2 7 1 2 8 4 7 3 2 5 3 6 2 2 3 2 5 1 2 4 1 5 4 3 1 2 2 6 7 4 2 8 3 4 7 2 2 6 7 2 2 4 5 7 2 2 8 6 3 6 2 1 7 5 7 
0 2 1 3 
1 0 1 7 
0 1 8 
1 0 1 11 
0 2 5 6 
1 4 1 10 
1 4 2 9 12 
1 1 1 11 
1 2 1 10 
1 6 1 13 
2 5 8 1 13 
2 3 7 1 14 
1 6 1 13 
3 9 12 10 0 
1 11 0 
0 1 19 
0 2 17 18 
1 16 2 20 22 
1 16 1 21 
1 15 1 20 
2 17 19 1 27 
1 18 1 25 
1 17 2 24 26 
0 1 25 
1 22 1 29 
2 21 23 1 28 
1 22 1 29 
1 20 0 
1 25 0 
2 24 26 0 
0 1 34 
0 1 33 
0 1 34 
1 31 1 35 
2 30 32 2 36 38 
1 33 2 37 40 
1 34 1 37 
2 35 36 1 43 
1 34 2 39 41 
1 38 1 44 
1 35 1 42 
1 38 1 43 
1 40 0 
2 37 41 0 
1 39 0 
0 2 46 48 
1 45 1 47 
1 46 1 57 
1 45 1 51 
0 1 54 
0 2 52 53 
1 48 1 55 
1 50 2 58 59 
1 50 1 57 
1 49 1 56 
1 51 1 56 
2 55 54 0 
2 53 47 0 
1 52 0 
1 52 0 
